
Gurobi 7.0.1 (mac64, Python) logging started Mon May  8 16:03:01 2017


Gurobi 7.0.1 (mac64, Python) logging started Mon May  8 16:37:02 2017


Gurobi 7.0.1 (mac64, Python) logging started Mon May  8 16:37:18 2017


Gurobi 7.0.1 (mac64, Python) logging started Mon May  8 16:38:52 2017


Gurobi 7.0.1 (mac64, Python) logging started Tue May  9 08:49:38 2017


Gurobi 7.0.1 (mac64, Python) logging started Tue May  9 09:03:46 2017


Gurobi 7.0.1 (mac64, Python) logging started Tue May  9 09:04:09 2017


Gurobi 7.0.1 (mac64, Python) logging started Tue May  9 09:05:25 2017


Gurobi 7.0.1 (mac64, Python) logging started Tue May  9 09:51:45 2017


Gurobi 7.0.1 (mac64, Python) logging started Tue May  9 09:53:16 2017


Gurobi 7.0.1 (mac64, Python) logging started Tue May  9 09:55:07 2017


Gurobi 7.0.1 (mac64, Python) logging started Tue May  9 09:55:35 2017


Gurobi 7.0.1 (mac64, Python) logging started Tue May  9 09:58:10 2017


Gurobi 7.0.1 (mac64, Python) logging started Tue May  9 10:17:59 2017


Gurobi 7.0.1 (mac64, Python) logging started Tue May  9 10:18:21 2017


Gurobi 7.0.1 (mac64, Python) logging started Tue May  9 10:19:24 2017


Gurobi 7.0.1 (mac64, Python) logging started Tue May  9 10:26:38 2017


Gurobi 7.0.1 (mac64, Python) logging started Tue May  9 10:27:54 2017


Gurobi 7.0.1 (mac64, Python) logging started Tue May  9 10:29:01 2017


Gurobi 7.0.1 (mac64, Python) logging started Tue May  9 10:30:36 2017


Gurobi 7.0.1 (mac64, Python) logging started Tue May  9 10:36:32 2017


Gurobi 7.0.1 (mac64, Python) logging started Tue May  9 10:41:15 2017


Gurobi 7.0.1 (mac64, Python) logging started Tue May  9 10:42:50 2017


Gurobi 7.0.1 (mac64, Python) logging started Tue May  9 10:45:33 2017


Gurobi 7.0.1 (mac64, Python) logging started Tue May  9 10:46:48 2017


Gurobi 7.0.1 (mac64, Python) logging started Tue May  9 10:49:09 2017


Gurobi 7.0.1 (mac64, Python) logging started Tue May  9 10:49:56 2017


Gurobi 7.0.1 (mac64, Python) logging started Tue May  9 10:56:44 2017


Gurobi 7.0.1 (mac64, Python) logging started Tue May  9 11:00:12 2017


Gurobi 7.0.1 (mac64, Python) logging started Tue May  9 11:11:37 2017


Gurobi 7.0.1 (mac64, Python) logging started Tue May  9 11:48:16 2017


Gurobi 7.0.1 (mac64, Python) logging started Tue May  9 11:48:37 2017


Gurobi 7.0.1 (mac64, Python) logging started Tue May  9 11:51:44 2017


Gurobi 7.0.1 (mac64, Python) logging started Tue May  9 11:54:37 2017


Gurobi 7.0.1 (mac64, Python) logging started Tue May  9 11:55:18 2017


Gurobi 7.0.1 (mac64, Python) logging started Tue May  9 12:14:44 2017


Gurobi 7.0.1 (mac64, Python) logging started Mon May 15 16:02:04 2017


Gurobi 7.0.1 (mac64, Python) logging started Mon May 15 19:47:14 2017


Gurobi 7.0.1 (mac64, Python) logging started Sat May 27 16:42:48 2017


Gurobi 7.0.1 (mac64, Python) logging started Sat May 27 17:12:19 2017


Gurobi 7.0.1 (mac64, Python) logging started Sat May 27 17:12:58 2017


Gurobi 7.0.1 (mac64, Python) logging started Sat May 27 17:26:37 2017


Gurobi 7.0.1 (mac64, Python) logging started Sat May 27 17:27:20 2017


Gurobi 7.0.1 (mac64, Python) logging started Sat May 27 18:07:50 2017


Gurobi 7.0.1 (mac64, Python) logging started Sat May 27 18:34:43 2017


Gurobi 7.0.1 (mac64, Python) logging started Sun May 28 11:03:24 2017


Gurobi 7.0.1 (mac64, Python) logging started Sun May 28 12:42:20 2017


Gurobi 7.0.1 (mac64, Python) logging started Mon May 29 11:06:42 2017


Gurobi 7.0.1 (mac64, Python) logging started Thu Jun  8 09:20:52 2017


Gurobi 7.0.1 (mac64, Python) logging started Thu Jun  8 09:21:46 2017


Gurobi 7.0.1 (mac64, Python) logging started Thu Jun  8 11:38:54 2017


Gurobi 7.0.1 (mac64, Python) logging started Thu Jun  8 17:36:23 2017


Gurobi 7.0.1 (mac64, Python) logging started Fri Jun  9 10:24:46 2017


Gurobi 7.0.1 (mac64, Python) logging started Fri Jun  9 17:40:59 2017


Gurobi 7.0.1 (mac64, Python) logging started Fri Jun  9 17:44:10 2017


Gurobi 7.0.1 (mac64, Python) logging started Fri Jun  9 17:55:25 2017


Gurobi 7.0.1 (mac64, Python) logging started Fri Jun  9 17:59:42 2017


Gurobi 7.0.1 (mac64, Python) logging started Fri Jun  9 18:08:03 2017


Gurobi 7.0.1 (mac64, Python) logging started Fri Jun  9 18:09:34 2017


Gurobi 7.0.1 (mac64, Python) logging started Sat Jun 10 09:18:40 2017


Gurobi 7.0.1 (mac64, Python) logging started Sat Jun 10 10:41:25 2017


Gurobi 7.0.1 (mac64, Python) logging started Mon Jun 12 14:12:47 2017


Gurobi 7.0.1 (mac64, Python) logging started Mon Jun 12 14:16:59 2017


Gurobi 7.0.1 (mac64, Python) logging started Mon Jun 12 14:24:45 2017


Gurobi 7.0.1 (mac64, Python) logging started Mon Jun 12 21:59:05 2017


Gurobi 7.0.1 (mac64, Python) logging started Tue Jun 13 08:23:42 2017


Gurobi 7.0.1 (mac64, Python) logging started Wed Jun 14 10:41:05 2017


Gurobi 7.0.1 (mac64, Python) logging started Fri Jun 16 10:59:46 2017


Gurobi 7.0.1 (mac64, Python) logging started Fri Jun 16 11:38:06 2017


Gurobi 7.0.1 (mac64, Python) logging started Sun Jun 18 10:46:18 2017


Gurobi 7.0.1 (mac64, Python) logging started Sun Jun 18 16:05:01 2017


Gurobi 7.0.1 (mac64, Python) logging started Mon Jun 19 08:01:26 2017


Gurobi 7.0.1 (mac64, Python) logging started Mon Jun 19 15:37:41 2017


Gurobi 7.0.1 (mac64, Python) logging started Mon Jun 19 15:47:43 2017


Gurobi 7.0.1 (mac64, Python) logging started Tue Jun 20 07:47:18 2017


Gurobi 7.0.1 (mac64, Python) logging started Tue Jun 20 11:49:03 2017


Gurobi 7.0.1 (mac64, Python) logging started Tue Jun 20 17:56:14 2017


Gurobi 7.0.1 (mac64, Python) logging started Tue Jun 20 17:58:58 2017


Gurobi 7.0.1 (mac64, Python) logging started Tue Jun 20 17:59:52 2017


Gurobi 7.0.1 (mac64, Python) logging started Tue Jun 20 18:10:13 2017


Gurobi 7.0.1 (mac64, Python) logging started Tue Jun 20 18:12:38 2017


Gurobi 7.0.1 (mac64, Python) logging started Tue Jun 20 18:13:35 2017


Gurobi 7.0.1 (mac64, Python) logging started Tue Jun 20 18:17:39 2017


Gurobi 7.0.1 (mac64, Python) logging started Tue Jun 20 18:19:20 2017


Gurobi 7.0.1 (mac64, Python) logging started Tue Jun 20 18:35:44 2017


Gurobi 7.0.1 (mac64, Python) logging started Tue Jun 20 18:36:50 2017


Gurobi 7.0.1 (mac64, Python) logging started Tue Jun 20 18:37:50 2017


Gurobi 7.0.1 (mac64, Python) logging started Tue Jun 20 18:40:01 2017


Gurobi 7.0.1 (mac64, Python) logging started Tue Jun 20 18:43:36 2017


Gurobi 7.0.1 (mac64, Python) logging started Tue Jun 20 18:59:07 2017

